NAME : portgen-40-205
COMMENT : portgen N=40, seed=205
TYPE : TSP
DIMENSION : 40
EDGE_WEIGHT_TYPE : EUC_2D
NODE_COORD_SECTION
1 2448 1659
2 2437 1232
3 2665 2094
4 1845 2296
5 464 2140
6 953 1623
7 169 2695
8 2325 1620
9 1245 602
10 2589 1220
11 499 2340
12 1389 112
13 2006 775
14 1523 1470
15 1865 3086
16 2907 966
17 1888 502
18 261 2116
19 1661 1443
20 860 919
21 50 1725
22 579 656
23 1167 2068
24 2010 479
25 3031 3160
26 3027 719
27 52 506
28 660 1481
29 2933 1935
30 970 548
31 432 401
32 1435 2708
33 2089 2390
34 1043 2676
35 1527 257
36 2773 766
37 733 2592
38 1356 2942
39 2287 883
40 2615 524
